ID_groupA,ID_groupB,ID_groupC,ID_groupD,ID_groupE
85,122,417,187,2193
318,122,417,187,2193
318,1336,417,2962,2193
886,122,417,187,2193
318,445,417,1839,2193
318,445,417,1591,2193
318,2712,417,1591,2193
2512,122,417,187,2193
318,122,417,187,2193
2979,122,417,187,2193
886,122,417,187,2193
318,122,417,187,2193
318,122,417,187,2193
318,122,417,187,2193
318,122,417,187,2193
886,122,1280,1188,2193
886,122,949,1188,2193
886,122,949,1188,2193
886,445,380,1591,2193
318,122,417,187,2193
886,445,380,1591,2193
318,122,417,187,2193
2979,122,1286,187,2193
886,122,1280,1188,2193
318,122,417,187,2193
318,122,417,187,2193
318,122,417,187,2193
886,955,949,1188,2193
886,1336,949,1188,2193
886,1336,949,1188,2193
318,445,417,187,2193
2979,122,380,187,2193
886,445,949,1591,2193
318,445,417,187,2193
2979,122,1286,187,2193
886,2712,949,1591,2193
318,122,417,187,2193
318,122,380,1591,2193
318,122,417,187,2193
886,1336,949,1188,2193
886,1336,949,1188,2193
318,445,417,187,2193
318,2712,417,187,2193
318,122,417,187,2193
318,445,417,187,2193
2979,122,1286,187,2193
886,1336,949,1188,2193
318,122,417,187,2193
318,122,380,1591,2193
318,122,417,187,2193
886,1336,949,1188,2193
886,445,949,1188,2193
886,2712,949,1188,2193
886,2712,380,1188,2193
886,122,949,187,2193
886,1336,1286,1188,2193
886,1336,949,1188,2193
886,445,949,1188,2193
886,2712,380,1188,2193
886,122,949,1188,2193
886,445,949,1188,2193
886,2712,949,1188,2193
886,1336,949,1188,2193
886,122,949,187,2193
886,1336,949,1188,2193
886,1336,949,1188,2193
886,445,949,1188,2193
886,1336,949,1188,2193
886,122,949,1188,2193
318,445,417,187,2193
318,445,417,187,2193
318,445,417,187,2193
2979,445,1286,187,2193
886,445,949,1591,2193
318,445,417,187,2193
886,445,380,1591,2193
318,445,417,187,2193
85,445,380,1591,2193
318,2712,417,187,2193
2979,2712,1286,187,2193
886,2712,949,1591,2193
318,2712,417,187,2193
318,122,380,1591,2193
318,122,417,187,2193
318,445,417,187,2193
2979,122,1286,187,2193
886,1336,380,1188,2193
886,445,380,1591,2193
886,445,380,1591,2193
318,122,417,187,2193
2979,122,1280,187,2193
886,122,1280,187,2193
318,445,417,187,2193
318,122,380,187,2193
318,122,417,187,2193
886,1336,1286,1188,2193
886,955,1286,1188,2193
886,955,1286,1188,2193
886,122,1286,1591,2193
886,2712,380,1188,2193
886,2712,380,1188,2193
886,122,1280,1188,2193
318,122,380,1591,2193
318,122,417,187,2193
85,122,380,187,2193
